; benchmark generated from python API
(set-info :status unknown)
(declare-fun v20 () Bool)
(declare-fun v16 () Bool)
(declare-fun v22 () Bool)
(declare-fun v26 () Bool)
(declare-fun v30 () Bool)
(declare-fun v28 () Bool)
(declare-fun v24 () Bool)
(declare-fun v18 () Bool)
(declare-fun v14 () Bool)
(declare-fun v12 () Bool)
(declare-fun i4 () Bool)
(declare-fun i6 () Bool)
(assert
 (= v20 true))
(assert
 (= v16 true))
(assert
 (= v22 true))
(assert
 (= v26 true))
(assert
 (let (($x453 (and v20 v16 v22 v26)))
 (let (($x70 (not v30)))
 (let (($x55 (not v28)))
 (let (($x50 (not v26)))
 (let (($x51 (not v24)))
 (let (($x45 (not v22)))
 (let (($x46 (not v20)))
 (let (($x40 (not v18)))
 (let (($x41 (not v16)))
 (let (($x35 (not v14)))
 (let (($x36 (not v12)))
 (let (($x141 (and $x36 $x35 $x41 $x40 $x46 $x45 $x51 $x50 $x55 $x70)))
 (let (($x156 (and $x141)))
 (let (($x44 (and (not (and $x40 $x41)) i4)))
 (let (($x49 (and (not (and $x45 $x46)) i6)))
 (let (($x468 (and (not (and $x156 (not $x453) (and $x49 $x44 v26 $x70))) (not (and $x156 $x453)))))
 (not $x468))))))))))))))))))
(check-sat)
